c preprocessed version of oow-trad-wpp, 21 vertices, 50 edges
p td 21 50
1 0
16 0
0 9
1 2
1 9
17 1
14 1
3 2
16 2
14 2
4 3
3 16
4 5
12 4
13 4
5 6
12 5
15 5
13 5
7 6
8 6
15 6
8 7
11 7
14 7
9 8
10 8
10 9
10 11
10 12
11 12
14 11
13 12
13 14
13 15
14 15
17 16
18 20
18 19
18 3
18 4
18 16
18 17
19 20
19 0
19 16
20 3
20 4
20 17
20 13
